DIMACS2
10 86 53 56 51 12 28 26 13 41 40
p edge 160 435
e 0 29 1.0
e 0 93 1.0
e 1 156 2.0
e 1 42 2.0
e 2 24 2.0
e 2 155 1.0
e 3 123 1.0
e 3 132 1.0
e 4 29 1.0
e 4 134 1.0
e 5 116 1.0
e 5 50 2.0
e 6 20 1.0
e 6 13 11.0
e 7 46 2.0
e 7 135 1.0
e 8 101 2.0
e 8 138 1.0
e 9 50 2.0
e 9 87 1.0
e 10 81 2.0
e 10 36 1.0
e 11 113 2.0
e 11 10 1.0
e 12 64 6.0
e 12 139 48.0
e 12 21 9.0
e 12 53 33.0
e 12 36 10.0
e 12 111 11.0
e 12 90 37.0
e 12 114 41.0
e 12 137 43.0
e 12 26 29.0
e 12 27 1.0
e 12 75 33.0
e 12 39 35.0
e 12 143 49.0
e 12 157 41.0
e 13 104 40.0
e 13 32 7.0
e 13 124 8.0
e 13 9 27.0
e 13 90 28.0
e 13 88 44.0
e 13 62 20.0
e 13 40 20.0
e 13 152 45.0
e 13 91 8.0
e 13 39 8.0
e 13 123 9.0
e 13 92 32.0
e 13 76 49.0
e 13 34 3.0
e 13 49 3.0
e 14 97 1.0
e 14 122 1.0
e 15 110 1.0
e 15 122 1.0
e 16 149 1.0
e 16 95 1.0
e 17 77 1.0
e 17 54 1.0
e 18 152 2.0
e 18 136 1.0
e 19 148 3.0
e 19 111 1.0
e 20 67 2.0
e 20 74 1.0
e 21 149 1.0
e 21 59 2.0
e 22 97 1.0
e 22 93 2.0
e 23 151 1.0
e 23 141 1.0
e 24 15 1.0
e 24 151 1.0
e 25 78 1.0
e 25 48 1.0
e 26 57 4.0
e 26 22 23.0
e 26 41 8.0
e 26 90 43.0
e 26 49 16.0
e 26 137 1.0
e 26 94 31.0
e 26 139 40.0
e 26 88 9.0
e 26 20 11.0
e 26 33 29.0
e 26 34 31.0
e 26 13 12.0
e 26 17 15.0
e 26 115 7.0
e 27 47 1.0
e 27 101 1.0
e 28 97 3.0
e 28 98 2.0
e 28 70 23.0
e 28 85 13.0
e 28 51 40.0
e 28 31 12.0
e 28 11 35.0
e 28 39 14.0
e 28 66 34.0
e 28 79 8.0
e 28 22 18.0
e 28 99 27.0
e 28 117 4.0
e 28 76 19.0
e 28 61 29.0
e 28 58 26.0
e 29 105 1.0
e 29 37 2.0
e 30 155 1.0
e 30 131 1.0
e 31 8 1.0
e 31 73 2.0
e 32 40 41.0
e 32 118 1.0
e 33 85 1.0
e 33 141 1.0
e 34 110 1.0
e 34 108 1.0
e 35 103 2.0
e 35 47 1.0
e 36 43 2.0
e 36 152 1.0
e 37 46 1.0
e 37 30 1.0
e 38 114 1.0
e 38 145 1.0
e 39 117 1.0
e 39 51 41.0
e 40 42 6.0
e 40 109 41.0
e 40 12 27.0
e 40 21 39.0
e 40 41 4.0
e 40 147 49.0
e 40 26 31.0
e 40 140 28.0
e 40 158 40.0
e 40 27 18.0
e 40 31 47.0
e 40 150 18.0
e 40 69 44.0
e 41 89 1.0
e 41 96 10.0
e 41 158 13.0
e 41 129 30.0
e 41 13 4.0
e 41 103 25.0
e 41 51 30.0
e 41 95 17.0
e 41 52 30.0
e 41 102 38.0
e 41 90 28.0
e 41 53 41.0
e 42 107 1.0
e 42 118 2.0
e 43 55 1.0
e 43 42 2.0
e 44 60 1.0
e 44 120 2.0
e 45 62 1.0
e 45 156 1.0
e 46 138 2.0
e 46 126 1.0
e 47 65 1.0
e 47 22 1.0
e 48 87 1.0
e 48 35 1.0
e 49 92 2.0
e 49 33 3.0
e 50 67 1.0
e 50 36 2.0
e 51 62 11.0
e 51 59 8.0
e 51 159 41.0
e 51 65 29.0
e 51 98 15.0
e 51 86 6.0
e 51 124 25.0
e 51 72 35.0
e 51 52 21.0
e 51 99 34.0
e 51 106 22.0
e 51 102 27.0
e 51 11 14.0
e 52 68 2.0
e 52 96 1.0
e 53 126 23.0
e 53 94 23.0
e 53 51 21.0
e 53 52 27.0
e 53 150 19.0
e 53 104 22.0
e 53 86 34.0
e 53 112 7.0
e 53 63 14.0
e 53 1 37.0
e 53 59 36.0
e 53 78 24.0
e 53 144 29.0
e 53 82 2.0
e 53 119 25.0
e 54 112 1.0
e 54 148 1.0
e 55 23 1.0
e 55 12 17.0
e 56 106 3.0
e 56 88 20.0
e 56 79 48.0
e 56 115 21.0
e 56 6 44.0
e 56 159 4.0
e 56 8 11.0
e 56 39 7.0
e 56 154 11.0
e 56 116 44.0
e 56 17 4.0
e 56 132 14.0
e 56 127 2.0
e 56 119 37.0
e 56 40 5.0
e 56 147 22.0
e 57 83 1.0
e 57 74 1.0
e 58 37 1.0
e 58 131 1.0
e 59 154 1.0
e 59 130 3.0
e 60 54 1.0
e 60 57 1.0
e 61 133 1.0
e 61 10 1.0
e 62 75 2.0
e 62 0 2.0
e 63 108 1.0
e 63 48 1.0
e 64 2 1.0
e 64 141 1.0
e 65 40 49.0
e 65 38 1.0
e 66 0 1.0
e 66 41 2.0
e 67 32 1.0
e 67 58 1.0
e 68 115 2.0
e 68 82 1.0
e 69 29 2.0
e 69 72 1.0
e 70 112 1.0
e 70 103 2.0
e 71 125 1.0
e 71 107 1.0
e 72 46 2.0
e 72 16 1.0
e 73 46 1.0
e 73 3 1.0
e 74 88 1.0
e 74 155 1.0
e 75 135 2.0
e 75 153 1.0
e 76 118 1.0
e 76 86 7.0
e 77 50 1.0
e 77 145 1.0
e 78 15 1.0
e 78 56 27.0
e 79 45 1.0
e 79 5 1.0
e 80 86 28.0
e 80 6 1.0
e 81 42 1.0
e 81 25 2.0
e 82 38 1.0
e 82 18 1.0
e 83 86 3.0
e 83 153 2.0
e 84 55 1.0
e 84 71 1.0
e 85 113 1.0
e 85 97 1.0
e 86 4 20.0
e 86 101 9.0
e 86 120 3.0
e 86 6 28.0
e 86 39 19.0
e 86 139 6.0
e 86 64 16.0
e 86 9 34.0
e 87 28 4.0
e 87 140 2.0
e 88 116 1.0
e 88 48 6.0
e 89 14 1.0
e 89 79 1.0
e 90 40 8.0
e 90 84 5.0
e 91 60 1.0
e 91 118 1.0
e 92 146 2.0
e 92 157 1.0
e 93 24 1.0
e 93 76 3.0
e 94 156 2.0
e 94 89 1.0
e 95 39 3.0
e 95 5 1.0
e 96 111 2.0
e 96 143 1.0
e 97 10 1.0
e 98 134 1.0
e 98 7 2.0
e 99 109 1.0
e 99 66 2.0
e 100 129 3.0
e 100 45 1.0
e 101 5 1.0
e 101 4 1.0
e 102 135 1.0
e 102 29 2.0
e 103 26 36.0
e 103 65 2.0
e 104 151 1.0
e 104 3 2.0
e 105 89 2.0
e 105 4 1.0
e 106 38 2.0
e 106 83 3.0
e 107 24 1.0
e 107 121 1.0
e 108 42 2.0
e 108 146 1.0
e 109 11 1.0
e 109 153 1.0
e 110 1 1.0
e 110 117 1.0
e 111 43 1.0
e 111 138 3.0
e 112 100 1.0
e 112 119 2.0
e 113 71 1.0
e 113 48 1.0
e 114 25 1.0
e 114 48 1.0
e 115 31 1.0
e 115 89 1.0
e 116 4 2.0
e 117 51 7.0
e 117 77 1.0
e 118 125 1.0
e 118 106 1.0
e 119 148 1.0
e 119 24 2.0
e 120 84 1.0
e 120 97 1.0
e 121 19 1.0
e 121 148 1.0
e 122 137 1.0
e 122 104 2.0
e 123 7 1.0
e 123 136 1.0
e 124 134 1.0
e 124 14 1.0
e 125 67 1.0
e 125 50 1.0
e 126 4 1.0
e 126 149 2.0
e 127 133 1.0
e 127 148 1.0
e 128 94 1.0
e 128 80 2.0
e 129 105 1.0
e 129 83 1.0
e 130 142 1.0
e 130 14 1.0
e 131 3 2.0
e 131 14 2.0
e 132 64 2.0
e 132 144 2.0
e 133 73 1.0
e 133 50 1.0
e 134 109 1.0
e 134 92 2.0
e 135 32 1.0
e 135 0 1.0
e 136 155 2.0
e 136 91 1.0
e 137 45 1.0
e 137 57 1.0
e 138 148 2.0
e 138 41 26.0
e 139 100 1.0
e 139 107 2.0
e 140 20 1.0
e 140 7 1.0
e 141 118 1.0
e 141 158 1.0
e 142 75 1.0
e 143 141 2.0
e 143 2 2.0
e 144 74 1.0
e 144 96 2.0
e 145 1 2.0
e 145 55 1.0
e 146 155 1.0
e 146 96 1.0
e 147 30 1.0
e 147 3 1.0
e 148 80 3.0
e 148 67 1.0
e 149 87 1.0
e 150 73 1.0
e 150 130 1.0
e 151 57 2.0
e 151 155 1.0
e 152 42 1.0
e 152 12 49.0
e 153 105 1.0
e 153 98 2.0
e 154 41 16.0
e 154 102 2.0
e 155 63 1.0
e 155 9 1.0
e 156 43 2.0
e 156 146 1.0
e 157 44 1.0
e 157 2 2.0
e 158 44 1.0
e 158 126 1.0
e 159 108 1.0
e 159 49 1.0
